1182.29 0
0 82 111 112 113 16 19 25 22 24 27 30 33 34 36 35 32 26 23 20 21 92 0
0 105 116 73 76 77 78 80 56 58 66 50 47 46 49 29 31 28 17 85 0
0 88 117 83 5 3 4 10 9 7 68 71 72 75 70 69 103 0
0 96 101 107 104 99 100 97 115 40 43 45 48 51 52 79 74 67 0
0 120 119 81 1 2 109 98 110 6 11 15 38 39 94 93 102 0
0 95 90 18 118 108 13 14 12 8 37 41 44 42 114 84 0
0 87 86 89 91 54 57 59 65 61 62 64 63 60 55 53 106 0